unsat
(:max-memory          18.05
 :memory              17.90
 :nlsat-conflicts     2
 :nlsat-learned-added 1
 :nlsat-propagations  6
 :nlsat-stages        3
 :num-allocs          5696
 :rlimit-count        1942
 :time                0.00
 :total-time          0.01)
